p edge 50 490
e 1 2
e 1 6
e 1 10
e 1 12
e 1 13
e 1 19
e 1 20
e 1 21
e 1 23
e 1 25
e 1 26
e 1 30
e 1 32
e 1 33
e 1 36
e 1 43
e 1 44
e 1 45
e 1 48
e 2 4
e 2 6
e 2 12
e 2 14
e 2 16
e 2 19
e 2 22
e 2 23
e 2 25
e 2 26
e 2 30
e 2 31
e 2 43
e 2 44
e 2 46
e 3 4
e 3 7
e 3 15
e 3 17
e 3 23
e 3 24
e 3 26
e 3 29
e 3 30
e 3 33
e 3 35
e 3 38
e 3 39
e 3 42
e 3 44
e 3 45
e 4 7
e 4 11
e 4 15
e 4 16
e 4 18
e 4 24
e 4 25
e 4 26
e 4 27
e 4 34
e 4 41
e 4 47
e 4 50
e 5 6
e 5 7
e 5 8
e 5 9
e 5 14
e 5 16
e 5 17
e 5 20
e 5 21
e 5 23
e 5 25
e 5 28
e 5 29
e 5 33
e 5 34
e 5 38
e 5 40
e 5 41
e 5 42
e 5 43
e 5 44
e 5 47
e 5 48
e 5 50
e 6 9
e 6 12
e 6 15
e 6 16
e 6 21
e 6 29
e 6 38
e 6 41
e 6 42
e 6 43
e 6 47
e 7 8
e 7 9
e 7 11
e 7 14
e 7 15
e 7 18
e 7 28
e 7 30
e 7 31
e 7 32
e 7 34
e 7 35
e 7 36
e 7 39
e 7 44
e 7 45
e 7 46
e 7 48
e 7 49
e 8 9
e 8 12
e 8 14
e 8 15
e 8 16
e 8 19
e 8 25
e 8 28
e 8 29
e 8 30
e 8 33
e 8 35
e 8 40
e 8 42
e 8 45
e 8 46
e 8 49
e 9 12
e 9 13
e 9 16
e 9 19
e 9 22
e 9 23
e 9 24
e 9 26
e 9 29
e 9 30
e 9 31
e 9 33
e 9 35
e 9 36
e 9 38
e 9 39
e 9 46
e 9 47
e 9 49
e 9 50
e 10 11
e 10 18
e 10 23
e 10 24
e 10 26
e 10 27
e 10 28
e 10 33
e 10 37
e 10 42
e 10 43
e 10 45
e 10 46
e 10 47
e 10 48
e 11 13
e 11 14
e 11 15
e 11 16
e 11 26
e 11 28
e 11 31
e 11 32
e 11 35
e 11 36
e 11 38
e 11 39
e 11 42
e 11 43
e 11 44
e 11 48
e 12 13
e 12 16
e 12 19
e 12 20
e 12 26
e 12 30
e 12 34
e 12 37
e 12 38
e 12 39
e 12 41
e 12 44
e 12 46
e 12 47
e 12 48
e 12 49
e 13 17
e 13 19
e 13 22
e 13 23
e 13 27
e 13 28
e 13 29
e 13 30
e 13 39
e 13 40
e 13 42
e 13 43
e 13 46
e 13 48
e 13 50
e 14 18
e 14 19
e 14 20
e 14 21
e 14 22
e 14 23
e 14 25
e 14 27
e 14 28
e 14 29
e 14 31
e 14 32
e 14 37
e 14 38
e 14 40
e 14 45
e 14 46
e 14 49
e 14 50
e 15 16
e 15 17
e 15 21
e 15 22
e 15 23
e 15 26
e 15 30
e 15 33
e 15 34
e 15 37
e 15 38
e 15 41
e 15 44
e 16 21
e 16 23
e 16 24
e 16 25
e 16 26
e 16 28
e 16 29
e 16 30
e 16 33
e 16 34
e 16 36
e 16 41
e 16 42
e 16 44
e 16 45
e 16 47
e 16 48
e 17 21
e 17 22
e 17 23
e 17 24
e 17 25
e 17 26
e 17 27
e 17 28
e 17 29
e 17 30
e 17 31
e 17 32
e 17 33
e 17 35
e 17 36
e 17 44
e 17 45
e 17 46
e 17 47
e 17 48
e 18 23
e 18 27
e 18 28
e 18 30
e 18 35
e 18 37
e 18 39
e 18 43
e 18 44
e 19 22
e 19 27
e 19 30
e 19 37
e 19 40
e 19 41
e 19 43
e 19 45
e 19 46
e 19 48
e 19 49
e 19 50
e 20 21
e 20 23
e 20 25
e 20 32
e 20 34
e 20 35
e 20 36
e 20 37
e 20 40
e 20 41
e 20 43
e 20 44
e 20 45
e 20 46
e 20 47
e 20 48
e 20 49
e 20 50
e 21 22
e 21 23
e 21 26
e 21 28
e 21 33
e 21 34
e 21 36
e 21 40
e 21 43
e 21 44
e 21 46
e 21 47
e 21 48
e 21 49
e 21 50
e 22 23
e 22 24
e 22 28
e 22 31
e 22 37
e 22 40
e 22 41
e 22 43
e 22 44
e 22 45
e 22 46
e 22 49
e 23 26
e 23 31
e 23 32
e 23 34
e 23 35
e 23 36
e 23 38
e 23 39
e 23 40
e 23 45
e 23 47
e 23 49
e 24 28
e 24 29
e 24 38
e 24 40
e 24 41
e 24 42
e 24 43
e 24 47
e 25 26
e 25 29
e 25 30
e 25 31
e 25 38
e 25 41
e 25 42
e 25 44
e 25 47
e 25 48
e 26 27
e 26 29
e 26 30
e 26 32
e 26 33
e 26 34
e 26 35
e 26 36
e 26 38
e 26 40
e 26 41
e 26 46
e 26 48
e 26 49
e 26 50
e 27 29
e 27 30
e 27 35
e 27 40
e 27 44
e 27 45
e 27 46
e 27 47
e 27 50
e 28 30
e 28 33
e 28 34
e 28 40
e 28 41
e 28 44
e 28 45
e 28 46
e 28 47
e 29 33
e 29 34
e 29 42
e 30 33
e 30 38
e 30 39
e 30 40
e 30 41
e 30 42
e 30 44
e 30 45
e 30 47
e 30 50
e 31 35
e 31 37
e 31 38
e 31 41
e 31 42
e 31 47
e 32 33
e 32 40
e 32 42
e 32 43
e 32 50
e 33 34
e 33 36
e 33 37
e 33 40
e 33 44
e 33 49
e 33 50
e 34 37
e 34 38
e 34 39
e 34 42
e 34 49
e 35 37
e 35 41
e 35 42
e 35 45
e 35 49
e 36 37
e 36 38
e 36 41
e 36 43
e 36 45
e 36 48
e 37 39
e 37 40
e 37 41
e 37 44
e 37 48
e 38 43
e 38 45
e 38 50
e 39 40
e 39 44
e 39 46
e 39 49
e 39 50
e 40 43
e 41 43
e 41 46
e 41 47
e 41 50
e 42 43
e 42 47
e 42 50
e 43 50
e 44 45
e 44 47
e 44 49
e 44 50
e 45 48
e 46 49
e 47 50
